100 80 5
0 1 0
1 2 0
2 3 0
3 4 0
5 6 1
6 7 1
7 8 1
8 9 1
10 11 2
11 12 2
12 13 2
13 14 2
15 16 3
16 17 3
17 18 3
18 19 3
20 21 4
21 22 4
22 23 4
23 24 4
25 26 5
26 27 5
27 28 5
28 29 5
30 31 6
31 32 6
32 33 6
33 34 6
35 36 7
36 37 7
37 38 7
38 39 7
40 41 8
41 42 8
42 43 8
43 44 8
45 46 9
46 47 9
47 48 9
48 49 9
50 51 10
51 52 10
52 53 10
53 54 10
55 56 11
56 57 11
57 58 11
58 59 11
60 61 12
61 62 12
62 63 12
63 64 12
65 66 13
66 67 13
67 68 13
68 69 13
70 71 14
71 72 14
72 73 14
73 74 14
75 76 15
76 77 15
77 78 15
78 79 15
80 81 16
81 82 16
82 83 16
83 84 16
85 86 17
86 87 17
87 88 17
88 89 17
90 91 18
91 92 18
92 93 18
93 94 18
95 96 19
96 97 19
97 98 19
98 99 19
1 3 60
1 0 87
1 1 72
1 4 95
1 2 66
1 1 54
1 0 48
1 2 39
1 3 35
1 4 5
1 3 20
1 1 46
1 0 97
1 2 21
1 4 55
1 2 37
1 0 59
1 3 19
1 1 34
1 4 46
1 2 73
1 3 25
1 1 24
1 0 28
1 4 23
1 1 78
1 3 28
1 2 83
1 0 45
1 4 5
1 3 71
1 1 37
1 2 12
1 4 29
1 0 53
1 4 12
1 3 33
1 1 55
1 2 87
1 0 38
1 0 48
1 1 40
1 2 49
1 3 83
1 4 7
1 0 90
1 4 27
1 2 65
1 3 17
1 1 23
1 0 62
1 3 85
1 1 66
1 2 84
1 4 19
1 3 59
1 2 46
1 4 13
1 1 64
1 0 25
1 2 53
1 1 73
1 3 80
1 4 88
1 0 41
1 2 57
1 4 47
1 0 14
1 1 67
1 3 74
1 2 41
1 4 64
1 3 84
1 1 78
1 0 84
1 4 52
1 3 28
1 2 26
1 0 63
1 1 46
1 1 11
1 0 64
1 3 10
1 4 73
1 2 17
1 4 38
1 3 95
1 0 85
1 1 97
1 2 67
1 3 93
1 1 65
1 2 95
1 0 59
1 4 46
1 0 60
1 1 85
1 2 43
1 4 85
1 3 32